Route #1: 1 26 40 39 28 20 27 1
Route #2: 1 5 9 14 31 8 23 32 1
Route #3: 1 25 36 3 38 10 22 19 4 1
Route #4: 1 7 34 12 35 30 15 18 2 1
Route #5: 1 6 16 21 17 41 11 1
Route #6: 1 29 33 13 24 37 1
cost 892.5873020865563